param n := 2;

param m := 2;

param K := 500;

param a :=
1 	 0.394876
2 	 0.963263
;
 param A :=
[1, *, *]:  1	2	:=
1	-0.652089	-0.729842	
2	-0.747341	0.011324	

[2, *, *]:  1	2	:=
1	-0.956950	0.654231	
2	0.895940	-0.969962	
;